
  32    1
  10

   0   0   5 2 3 4 5 9 
  10   1   3 13 7 6 
   4   2   4 17 14 12 8 
   9   4   5 17 13 12 11 10 
   1   5   4 17 14 11 10 
   6   3   3 17 12 10 
   1   3   3 17 12 11 
   4   2   2 11 10 
   3   4   2 12 11 
   7   6   3 19 18 15 
   1   4   2 19 16 
   1   4   2 16 15 
   2   4   2 19 16 
   6   6   2 20 16 
   7   5   4 26 24 23 20 
   2   2   3 24 23 18 
   8   4   3 23 20 18 
   2   6   3 27 26 21 
   1   8   1 20 
  10   4   2 27 21 
   7   5   1 22 
   8   6   2 31 25 
   2   4   2 27 25 
   7   6   2 31 25 
  10   2   2 30 28 
   5   3   2 30 28 
   5   7   2 30 29 
   7   4   1 29 
   3   3   1 32
   4   1   1 32
   6   2   1 32
   0   0   0 
